
Gurobi 6.5.2 (win64) logging started 07/24/16 17:40:02


Gurobi 6.5.2 (win64) logging started 07/24/16 17:40:02

Optimize a model with 3663 rows, 348 columns and 7999 nonzeros
Coefficient statistics:
  Matrix range    [1e+00, 4e+02]
  Objective range [2e+00, 4e+02]
  Bounds range    [1e+00, 1e+00]
  RHS range       [1e+00, 3e+03]
Presolve removed 3533 rows and 42 columns
Presolve time: 0.00s
Presolved: 130 rows, 306 columns, 1460 nonzeros
Variable types: 0 continuous, 306 integer (306 binary)

Root relaxation: objective 2.602000e+03, 185 iterations, 0.00 seconds

    Nodes    |    Current Node    |     Objective Bounds      |     Work
 Expl Unexpl |  Obj  Depth IntInf | Incumbent    BestBd   Gap | It/Node Time

*    0     0               0    2602.0000000 2602.00000  0.00%     -    0s

Explored 0 nodes (185 simplex iterations) in 0.02 seconds
Thread count was 8 (of 8 available processors)

Optimal solution found (tolerance 1.00e-04)
Best objective 2.602000000000e+03, best bound 2.602000000000e+03, gap 0.0%

Wrote requested result file 'H1\instance23\\Results23SG_Sol4.lp'

